100 151374
89 4 69 90 39 86 65 70 37 76 62 94 60 72 57 75 41 6 26 64 66 44 32 23 17 47 19 36 38 71 1 51 7 82 81 42 16 21 56 20 73 48 98 5 9 11 25 78 40 18 58 68 77 67 88 45 54 59 85 79 53 30 100 8 61 29 74 80 13 12 27 50 83 93 31 34 14 97 22 55 24 35 10 15 2 92 99 49 43 95 63 28 96 33 91 3 84 52 87 46 
